20  5
  0  11  1  95  2  26  3  46  4  20
  0  47  1  40  2  98  3  98  4  16
  0  35  1  84  2  40  3  52  4  98
  0  94  1  28  2  20  3  31  4  99
  0  59  1  57  2  88  3  89  4  9
  0  91  1  6  2  13  3  48  4  73
  0  11  1  55  2  14  3  13  4  50
  0  94  1  87  2  33  3  90  4  14
  0  40  1  65  2  62  3  62  4  41
  0  70  1  67  2  91  3  49  4  37
  0  69  1  27  2  16  3  8  4  17
  0  20  1  89  2  32  3  95  4  9
  0  93  1  40  2  99  3  95  4  2
  0  91  1  53  2  91  3  59  4  38
  0  49  1  3  2  3  3  18  4  64
  0  53  1  92  2  47  3  81  4  79
  0  48  1  5  2  18  3  30  4  56
  0  97  1  46  2  52  3  88  4  75
  0  57  1  62  2  56  3  20  4  99
  0  21  1  87  2  27  3  95  4  71
